<instance format="XCSP3" type="CSP">
  <variables>
    <var id="x0"> 12 15 </var>
    <var id="x1"> 0 1 11 12 14 </var>
    <var id="x2"> 0 1 10 12 14 </var>
    <var id="x3"> 5 11 15 </var>
    <var id="x4"> 1 15 </var>
    <var id="x5"> 5 10..12 14 </var>
    <var id="x6"> 10 12 </var>
    <var id="x7"> 1 5 10..12 </var>
    <var id="x8"> 5 11..13 </var>
    <var id="x9"> 4 6 12 </var>
    <var id="x10"> 1 11 12 </var>
    <var id="x11"> 1 7 11 13 </var>
    <var id="x12"> 1 4 7 12 </var>
    <var id="x13"> 4 6 12 13 </var>
    <var id="x14"> 1 4..7 11 12 </var>
    <var id="x15"> 1 5 11 </var>
    <var id="x16"> 9 11 12 14 15 </var>
    <var id="x17"> 1 9 12 14 16 </var>
    <var id="x18"> 1 12 16 </var>
    <var id="x19"> 1 8 9 15 </var>
    <var id="x20"> 1 8 11 12 </var>
    <var id="x21"> 11 12 14 16 </var>
    <var id="x22"> 8 9 12 </var>
    <var id="x23"> 1 9 11 15 16 </var>
    <var id="x24"> 0 9 12 16 </var>
    <var id="x25"> 3 9 12 15 </var>
    <var id="x26"> 0 9 12 13 16 </var>
    <var id="x27"> 3 6 9 13 15 </var>
    <var id="x28"> 0 12 </var>
    <var id="x29"> 6 12 16 </var>
    <var id="x30"> 3 6 9 12 13 </var>
    <var id="x31"> 0 3 9 13 </var>
    <var id="x32"> 8 12 17 </var>
    <var id="x33"> 0 11 12 17 </var>
    <var id="x34"> 0 3 10 12 </var>
    <var id="x35"> 3 5 8 11 17 </var>
    <var id="x36"> 3 8 </var>
    <var id="x37"> 0 8 11 12 </var>
    <var id="x38"> 0 5 11 12 17 </var>
    <var id="x39"> 5 10 11 17 </var>
    <var id="x40"> 8 9 15 </var>
    <var id="x41"> 0..3 9 11 </var>
    <var id="x42"> 3 9 11 15 </var>
    <var id="x43"> 0 1 3 </var>
    <var id="x44"> 0 1 8 11 </var>
    <var id="x45"> 2 8 15 </var>
    <var id="x46"> 11 </var>
    <var id="x47"> 1 11 </var>
    <var id="x48"> 11..13 15 </var>
    <var id="x49"> 6 8 12 15..17 </var>
    <var id="x50"> 11 13 </var>
    <var id="x51"> 8 12 16 </var>
    <var id="x52"> 11 12 15 </var>
    <var id="x53"> 6 8 11 15 17 </var>
    <var id="x54"> 6 8 15..17 </var>
    <var id="x55"> 6 11 12 16 17 </var>
    <var id="x56"> 5 9 11 12 </var>
    <var id="x57"> 1 7 9 11 </var>
    <var id="x58"> 1 9 12 </var>
    <var id="x59"> 1 4 11 12 </var>
    <var id="x60"> 5 7 17 </var>
    <var id="x61"> 4 9 12 </var>
    <var id="x62"> 1 5 9 11 17 </var>
    <var id="x63"> 5 9 </var>
    <var id="x64"> 0 9 </var>
    <var id="x65"> 4 6 8 9 16 </var>
    <var id="x66"> 2 4 8..10 16 </var>
    <var id="x67"> 0 4 10 16 </var>
    <var id="x68"> 2 6 8 </var>
    <var id="x69"> 2 6 8 16 </var>
    <var id="x70"> 4 6 8..10 </var>
    <var id="x71"> 4 6 10 </var>
    <var id="x72"> 9 14 17 </var>
    <var id="x73"> 3 6 8 15 17 </var>
    <var id="x74"> 3 6 8 9 13 15 </var>
    <var id="x75"> 6 8 13 </var>
    <var id="x76"> 6 8 15 17 </var>
    <var id="x77"> 14 17 </var>
    <var id="x78"> 3 6 8 9 13 </var>
    <var id="x79"> 3 9 13 </var>
    <var id="x80"> 4 9 10 12 </var>
    <var id="x81"> 9 10 12 15 </var>
    <var id="x82"> 1 9 10 12 </var>
    <var id="x83"> 1 4 10 12 </var>
    <var id="x84"> 1 4 6 12 </var>
    <var id="x85"> 1 4 6 10 12 </var>
    <var id="x86"> 1 9 10 15 </var>
    <var id="x87"> 0 5 9 13 </var>
    <var id="x88"> 0 9 16 </var>
    <var id="x89"> 0 9 10 13 16 </var>
    <var id="x90"> 9 13 </var>
    <var id="x91"> 2 5 16 </var>
    <var id="x92"> 5 10 16 </var>
    <var id="x93"> 0 2 5 9 10 13 </var>
    <var id="x94"> 5 12 14 </var>
    <var id="x95"> 4 6 8 12 16 </var>
    <var id="x96"> 10 12 </var>
    <var id="x97"> 5 6 8 </var>
    <var id="x98"> 4 6 8 </var>
    <var id="x99"> 5 6 10 12 14 16 </var>
    <var id="x100"> 5 10 16 </var>
    <var id="x101"> 5 10 </var>
    <var id="x102"> 0 12 16 </var>
    <var id="x103"> 0 2 3 </var>
    <var id="x104"> 2 10 12 16 </var>
    <var id="x105"> 3 10 12 </var>
    <var id="x106"> 2 3 5 6 </var>
    <var id="x107"> 0 6 12 </var>
    <var id="x108"> 2 5 6 16 </var>
    <var id="x109"> 5 6 10 12 </var>
    <var id="x110"> 0 1 11 12 17 </var>
    <var id="x111"> 0 1 3 7 11 </var>
    <var id="x112"> 10 12 </var>
    <var id="x113"> 3 7 10..12 </var>
    <var id="x114"> 3 11 17 </var>
    <var id="x115"> 0 1 11 12 </var>
    <var as="x33" id="x116"/>
    <var id="x117"> 0 3 10 </var>
    <var id="x118"> 7 9 11 13 </var>
    <var id="x119"> 4 9 10 14 </var>
    <var id="x120"> 4 7 10 </var>
    <var id="x121"> 4 11 14 </var>
    <var id="x122"> 4 7 10 11 </var>
    <var id="x123"> 9..11 </var>
    <var id="x124"> 9 10 13 </var>
    <var id="x125"> 4 9 12 14 16 </var>
    <var id="x126"> 9 12..14 16 </var>
    <var id="x127"> 3 4 12 16 </var>
    <var id="x128"> 4 12 14 17 </var>
    <var id="x129"> 12 14 16 17 </var>
    <var id="x130"> 3 4 9 12 13 </var>
    <var id="x131"> 4 12 </var>
    <var id="x132"> 9 16 17 </var>
    <var id="x133"> 5 9 11 </var>
    <var id="x134"> 4 9 17 </var>
    <var id="x135"> 1 2 7 9 11 </var>
    <var id="x136"> 2 4 9 </var>
    <var id="x137"> 1 9 </var>
    <var id="x138"> 1 4 9 </var>
    <var id="x139"> 2 5 7 17 </var>
    <var id="x140"> 4 5 11 17 </var>
  </variables>
  <constraints>
    <group>
      <allDifferent> %... </allDifferent>
      <args> x0 x1 x2 x3 x4 x5 x6 x7 </args>
      <args> x8 x9 x10 x11 x12 x13 x14 x15 </args>
      <args> x16 x17 x18 x19 x20 x21 x22 x23 </args>
      <args> x24 x25 x26 x27 x28 x29 x30 x31 </args>
      <args> x32 x33 x34 x35 x36 x37 x38 x39 </args>
      <args> x40 x41 x42 x43 x44 x45 x46 x47 </args>
      <args> x48 x49 x50 x51 x52 x53 x54 x55 </args>
      <args> x56 x57 x58 x59 x60 x61 x62 x63 </args>
      <args> x64 x65 x66 x67 x68 x69 x70 x71 </args>
      <args> x72 x73 x74 x75 x76 x77 x78 x79 </args>
      <args> x80 x81 x82 x83 x84 x85 x86 </args>
      <args> x87 x88 x89 x90 x91 x92 x93 </args>
      <args> x94 x95 x96 x97 x98 x99 x100 x101 </args>
      <args> x102 x103 x104 x105 x106 x107 x108 x109 </args>
      <args> x110 x111 x112 x113 x114 x115 x116 x117 </args>
      <args> x118 x119 x120 x121 x122 x123 x124 </args>
      <args> x125 x126 x127 x128 x129 x130 x131 x132 </args>
      <args> x133 x134 x135 x136 x137 x138 x139 x140 </args>
      <args> x8 x16 x48 x56 x64 x87 x94 x133 </args>
      <args> x0 x9 x32 x40 x49 x65 x95 x134 </args>
      <args> x1 x10 x24 x33 x72 x88 x102 x110 </args>
      <args> x11 x41 x50 x57 x103 x111 x118 x135 </args>
      <args> x51 x66 x80 x104 x112 x119 x125 x136 </args>
      <args> x25 x42 x52 x81 x96 x105 x113 </args>
      <args> x2 x17 x26 x58 x82 x89 x126 x137 </args>
      <args> x12 x18 x34 x43 x67 x83 x120 x127 </args>
      <args> x3 x35 x53 x68 x73 x97 x106 x114 </args>
      <args> x4 x19 x27 x36 x74 x90 x98 x138 </args>
      <args> x20 x37 x44 x59 x75 x84 x107 x115 </args>
      <args> x45 x54 x60 x69 x76 x91 x108 x139 </args>
      <args> x28 x38 x77 x116 x121 x128 x140 </args>
      <args> x5 x21 x29 x46 x55 x92 x99 x129 </args>
      <args> x6 x13 x22 x30 x61 x70 x78 x130 </args>
      <args> x7 x14 x47 x71 x85 x109 x122 x131 </args>
      <args> x15 x23 x39 x62 x86 x100 x123 x132 </args>
      <args> x31 x63 x79 x93 x101 x117 x124 </args>
    </group>
  </constraints>
</instance>

